33
1 7 2 3 8 9 10 29 30
2 6 1 3 4 16 30 32
3 4 1 2 8 16
4 5 2 12 13 15 32
5 3 6 9 10
6 5 5 7 10 24 29
7 5 6 24 25 26 29
8 3 1 3 9
9 4 1 5 8 10
10 5 1 5 6 9 29
11 5 13 14 25 26 32
12 3 4 13 32
13 6 4 11 12 14 15 32
14 7 11 13 15 17 18 25 31
15 3 4 13 14
16 2 2 3
17 3 14 18 22
18 7 14 17 19 21 22 31 33
19 5 18 20 21 27 31
20 2 19 21
21 4 18 19 20 33
22 2 17 18
23 0
24 3 6 7 25
25 8 7 11 14 24 26 27 29 31
26 7 7 11 25 28 29 30 32
27 3 19 25 31
28 3 26 29 30
29 8 1 6 7 10 25 26 28 30
30 6 1 2 26 28 29 32
31 5 14 18 19 25 27
32 7 2 4 11 12 13 26 30
33 2 18 21
